-1 -955 0
-951 -833 -107 0
-952 -228 1 0
122 1 0
-955 0
-107 0
1 0
849 0
213 0
-743 0
-319 0
54 0
-122 0
939 0
864 0
-425 0
-160 0
-478 0
-637 0
954 0
123 0
-833 0
-515 0
-758 0
-440 0
902 0
83 0
30 0
16 0
-848 0
-530 0
-839 0
-11 0
-854 0
-26 0
-892 0
-64 0
-101 0
-116 0
-229 0
-547 0
-17 0
91 0
69 0
681 0
349 0
94 0
606 0
642 0
274 0
238 0
-796 0
-131 0
-706 0
-599 0
-614 0
-44 0
-652 0
-189 0
-5 0
-279 0
-507 0
0
